JOBS = 1..4;
MACHINES = 1..4;
SPEED = 3;
time = array3d(JOBS,MACHINES,1..SPEED,[147,36,26,244,59,44,203,49,36,83,20,14,62,15,11,90,22,16,68,16,12,240,58,43,178,43,32,253,62,45,124,30,22,69,16,12,107,26,19,187,45,33,256,62,46,234,57,42]);
energy = array3d(JOBS,MACHINES,1..SPEED,[22,69,77,8,55,64,13,61,69,43,81,86,53,86,89,40,80,85,50,85,88,9,55,65,16,65,72,7,53,63,28,74,80,50,85,88,34,77,82,15,63,71,7,53,63,9,56,65]);
precedence = array2d(JOBS,MACHINES,[2,0,1,3,0,1,2,3,1,2,0,3,0,1,3,2]);
ME = 1;
TE = 130;
st_old = array2d(JOBS,MACHINES,[367,0,164,515,0,62,152,164,169,356,2,446,62,169,451,404]);
SpeedScaling = array2d(JOBS,MACHINES,[1,2,1,3,1,1,3,1,1,2,1,1,1,1,2,3]);
